
n_res = 8;
rcap = [28, 26, 25, 25, 1716, 1742, 1675, 1797];
rtype = [1, 1, 1, 1, 2, 2, 2, 2];
n_tasks = 100;
modes =  [{1, 2, 3, 4, 5, 6}, {7, 8, 9, 10, 11, 12}, {13, 14, 15, 16, 17, 18}, {19, 20, 21, 22, 23, 24}, {25, 26, 27, 28, 29, 30}, {31, 32, 33, 34, 35, 36}, {37, 38, 39, 40, 41, 42}, {43, 44, 45, 46, 47, 48}, {49, 50, 51, 52, 53, 54}, {55, 56, 57, 58, 59, 60}, {61, 62, 63, 64, 65, 66}, {67, 68, 69, 70, 71, 72}, {73, 74, 75, 76, 77, 78}, {79, 80, 81, 82, 83, 84}, {85, 86, 87, 88, 89, 90}, {91, 92, 93, 94, 95, 96}, {97, 98, 99, 100, 101, 102}, {103, 104, 105, 106, 107, 108}, {109, 110, 111, 112, 113, 114}, {115, 116, 117, 118, 119, 120}, {121, 122, 123, 124, 125, 126}, {127, 128, 129, 130, 131, 132}, {133, 134, 135, 136, 137, 138}, {139, 140, 141, 142, 143, 144}, {145, 146, 147, 148, 149, 150}, {151, 152, 153, 154, 155, 156}, {157, 158, 159, 160, 161, 162}, {163, 164, 165, 166, 167, 168}, {169, 170, 171, 172, 173, 174}, {175, 176, 177, 178, 179, 180}, {181, 182, 183, 184, 185, 186}, {187, 188, 189, 190, 191, 192}, {193, 194, 195, 196, 197, 198}, {199, 200, 201, 202, 203, 204}, {205, 206, 207, 208, 209, 210}, {211, 212, 213, 214, 215, 216}, {217, 218, 219, 220, 221, 222}, {223, 224, 225, 226, 227, 228}, {229, 230, 231, 232, 233, 234}, {235, 236, 237, 238, 239, 240}, {241, 242, 243, 244, 245, 246}, {247, 248, 249, 250, 251, 252}, {253, 254, 255, 256, 257, 258}, {259, 260, 261, 262, 263, 264}, {265, 266, 267, 268, 269, 270}, {271, 272, 273, 274, 275, 276}, {277, 278, 279, 280, 281, 282}, {283, 284, 285, 286, 287, 288}, {289, 290, 291, 292, 293, 294}, {295, 296, 297, 298, 299, 300}, {301, 302, 303, 304, 305, 306}, {307, 308, 309, 310, 311, 312}, {313, 314, 315, 316, 317, 318}, {319, 320, 321, 322, 323, 324}, {325, 326, 327, 328, 329, 330}, {331, 332, 333, 334, 335, 336}, {337, 338, 339, 340, 341, 342}, {343, 344, 345, 346, 347, 348}, {349, 350, 351, 352, 353, 354}, {355, 356, 357, 358, 359, 360}, {361, 362, 363, 364, 365, 366}, {367, 368, 369, 370, 371, 372}, {373, 374, 375, 376, 377, 378}, {379, 380, 381, 382, 383, 384}, {385, 386, 387, 388, 389, 390}, {391, 392, 393, 394, 395, 396}, {397, 398, 399, 400, 401, 402}, {403, 404, 405, 406, 407, 408}, {409, 410, 411, 412, 413, 414}, {415, 416, 417, 418, 419, 420}, {421, 422, 423, 424, 425, 426}, {427, 428, 429, 430, 431, 432}, {433, 434, 435, 436, 437, 438}, {439, 440, 441, 442, 443, 444}, {445, 446, 447, 448, 449, 450}, {451, 452, 453, 454, 455, 456}, {457, 458, 459, 460, 461, 462}, {463, 464, 465, 466, 467, 468}, {469, 470, 471, 472, 473, 474}, {475, 476, 477, 478, 479, 480}, {481, 482, 483, 484, 485, 486}, {487, 488, 489, 490, 491, 492}, {493, 494, 495, 496, 497, 498}, {499, 500, 501, 502, 503, 504}, {505, 506, 507, 508, 509, 510}, {511, 512, 513, 514, 515, 516}, {517, 518, 519, 520, 521, 522}, {523, 524, 525, 526, 527, 528}, {529, 530, 531, 532, 533, 534}, {535, 536, 537, 538, 539, 540}, {541, 542, 543, 544, 545, 546}, {547, 548, 549, 550, 551, 552}, {553, 554, 555, 556, 557, 558}, {559, 560, 561, 562, 563, 564}, {565, 566, 567, 568, 569, 570}, {571, 572, 573, 574, 575, 576}, {577, 578, 579, 580, 581, 582}, {583, 584, 585, 586, 587, 588}, {589, 590, 591, 592, 593, 594}, {595, 596, 597, 598, 599, 600}];
succ =  [{21, 16, 15, 14, 12, 10, 9, 8, 6}, {20, 16, 15, 14, 6, 5}, {24, 17, 16, 12, 10, 9}, {26, 19, 14, 12, 10}, {30, 27, 22, 19, 18, 12}, {44, 40, 30, 29, 27, 26, 25, 24, 22, 19}, {29, 26, 24, 22, 19, 12}, {41, 40, 37, 31, 29, 27, 25, 23, 22, 20}, {40, 30, 29, 27, 25, 23, 22, 19}, {41, 40, 31, 25, 22, 20}, {40, 37, 31, 29, 28, 20}, {41, 40, 37, 36, 28, 25, 23}, {42, 40, 37, 31, 29, 26, 23}, {38, 35, 34, 32, 30, 29, 24}, {42, 40, 38, 35, 34, 33, 32, 31, 26}, {42, 40, 36, 34, 33, 31, 26, 25}, {41, 36, 33, 25, 23}, {41, 40, 38, 29, 28}, {51, 48, 42, 41, 38, 37, 34, 33, 31}, {44, 38, 35, 34, 33, 32, 30}, {51, 42, 41, 40, 33, 32, 31}, {48, 38, 36, 35, 28}, {52, 48, 44, 39, 38, 35, 34}, {52, 51, 48, 41, 33, 31}, {52, 51, 49, 48, 47, 43, 39}, {51, 49, 48, 47, 43, 41, 39}, {52, 48, 47, 46, 38, 34}, {46, 42, 33, 32}, {49, 48, 47, 43, 39, 36}, {49, 48, 47, 46, 45, 36}, {49, 43, 39}, {52, 50, 49, 47, 45}, {55, 49, 47, 43}, {55, 50, 49, 43}, {55, 51, 49, 43}, {66, 63, 57, 56, 54, 53, 50}, {57, 56, 54, 53, 52, 50}, {56, 55, 50, 45}, {63, 50, 46}, {56, 48, 45}, {66, 58, 56, 55, 54, 50}, {60, 57, 56, 54, 49}, {56, 53, 45}, {65, 63, 60, 58, 56, 55, 54}, {65, 63, 62, 61, 60, 58, 57, 54}, {77, 65, 59, 56, 55, 53}, {65, 63, 62, 59, 57, 56, 53}, {77, 63, 61, 59, 58, 55}, {77, 67, 66, 65, 63, 62, 61, 59, 58}, {78, 72, 70, 69, 67, 65, 62, 60, 59}, {69, 67, 62, 61, 58, 57}, {72, 69, 67, 65, 63, 62, 60}, {78, 69, 67, 64, 61, 58}, {81, 78, 77, 72, 69, 67, 59}, {81, 69, 67, 62, 57}, {76, 72, 69, 61}, {84, 78, 75, 74, 68, 64}, {76, 74, 73, 72, 71, 70}, {84, 75, 74, 68, 64}, {81, 75, 74, 64}, {84, 81, 79, 75, 74, 73, 68}, {76, 74, 71, 68}, {89, 84, 82, 79, 73, 68}, {91, 85, 76, 73, 71}, {91, 89, 88, 86, 85, 83, 82, 73}, {88, 85, 84, 83, 75, 73}, {91, 88, 83, 82, 79, 73}, {100, 99, 91, 88, 86, 85, 83, 80}, {100, 91, 89, 88, 86, 82, 80}, {88, 87, 85, 84, 75}, {100, 89, 88, 86, 83, 79}, {100, 99, 84, 79}, {100, 99, 80}, {91, 86, 80}, {100, 95, 94, 91, 90, 82}, {100, 83, 82}, {88, 83, 82}, {98, 97, 96, 94, 90, 88, 87}, {80}, {98, 97, 96, 94, 90, 87}, {98, 94, 90, 89, 88}, {99, 97, 96, 93, 92}, {98, 96, 95, 94, 93}, {98, 96, 95, 94, 92}, {94, 93, 92}, {94, 90}, {95, 92}, {95, 92}, {97, 93}, {93}, {92}, {}, {}, {}, {}, {}, {}, {}, {}, {}];
n_opt = 600;
dur = [1, 2, 4, 10, 12, 30, 9, 14, 20, 21, 22, 23, 9, 15, 18, 19, 28, 29, 5, 9, 10, 18, 20, 24, 4, 8, 11, 13, 19, 21, 9, 14, 18, 24, 28, 30, 5, 6, 7, 8, 21, 25, 2, 4, 11, 21, 26, 29, 4, 14, 15, 19, 22, 30, 2, 5, 6, 12, 14, 30, 2, 10, 22, 26, 27, 28, 4, 10, 13, 15, 20, 28, 5, 13, 19, 22, 25, 29, 1, 2, 4, 19, 24, 26, 3, 4, 5, 13, 19, 23, 14, 16, 17, 20, 27, 28, 10, 15, 24, 25, 28, 29, 13, 14, 18, 23, 27, 29, 2, 3, 4, 15, 20, 23, 1, 2, 5, 6, 9, 16, 2, 6, 7, 9, 12, 15, 3, 7, 13, 20, 22, 30, 12, 13, 20, 21, 25, 30, 4, 11, 19, 20, 26, 28, 5, 6, 15, 23, 26, 29, 1, 7, 19, 20, 24, 28, 5, 9, 10, 25, 28, 29, 1, 2, 16, 18, 24, 28, 3, 4, 9, 23, 27, 28, 3, 16, 21, 22, 27, 29, 1, 10, 12, 13, 15, 30, 2, 6, 7, 16, 28, 30, 14, 18, 22, 24, 25, 27, 1, 10, 20, 21, 22, 29, 5, 7, 8, 9, 22, 23, 1, 13, 16, 17, 18, 24, 3, 6, 7, 8, 19, 26, 1, 2, 5, 10, 18, 25, 4, 5, 14, 20, 23, 26, 4, 8, 18, 20, 22, 27, 9, 19, 21, 22, 23, 26, 4, 6, 19, 21, 29, 30, 6, 11, 18, 19, 25, 26, 3, 9, 22, 23, 24, 28, 2, 7, 11, 15, 24, 29, 1, 4, 15, 21, 22, 24, 8, 11, 13, 17, 21, 28, 4, 7, 9, 13, 17, 28, 1, 7, 17, 23, 28, 29, 1, 2, 14, 20, 22, 29, 1, 23, 24, 25, 28, 29, 6, 12, 13, 14, 22, 29, 3, 4, 5, 8, 14, 30, 2, 4, 5, 18, 19, 23, 1, 12, 13, 14, 25, 27, 8, 9, 11, 13, 25, 27, 13, 15, 19, 26, 28, 30, 5, 8, 11, 12, 14, 30, 5, 7, 13, 16, 17, 19, 1, 4, 6, 8, 22, 28, 5, 14, 19, 24, 26, 30, 8, 12, 15, 22, 25, 30, 6, 17, 23, 27, 28, 29, 8, 19, 21, 22, 23, 29, 3, 4, 19, 23, 26, 27, 1, 2, 3, 11, 21, 30, 2, 7, 9, 26, 28, 29, 9, 18, 19, 23, 25, 30, 2, 3, 4, 5, 11, 16, 11, 19, 21, 24, 25, 27, 1, 12, 17, 19, 26, 27, 2, 3, 14, 15, 16, 30, 4, 8, 11, 12, 15, 24, 1, 5, 6, 13, 17, 19, 1, 6, 8, 10, 15, 30, 8, 9, 11, 13, 23, 24, 2, 7, 8, 20, 24, 29, 2, 7, 10, 12, 22, 29, 7, 19, 23, 28, 29, 30, 1, 6, 23, 24, 28, 29, 11, 13, 18, 20, 29, 30, 6, 7, 12, 13, 14, 28, 1, 2, 9, 23, 24, 25, 15, 17, 20, 21, 22, 25, 7, 11, 21, 22, 23, 26, 2, 6, 13, 15, 18, 19, 3, 4, 13, 24, 27, 28, 2, 5, 9, 10, 20, 27, 3, 5, 6, 11, 12, 29, 5, 12, 15, 16, 17, 18, 2, 5, 12, 18, 20, 26, 1, 2, 8, 13, 19, 22, 2, 6, 12, 13, 14, 16, 7, 13, 21, 22, 26, 27, 2, 3, 5, 11, 18, 29, 3, 9, 10, 19, 23, 24, 4, 11, 14, 16, 17, 30, 2, 8, 15, 16, 24, 27, 14, 16, 23, 24, 26, 28, 2, 3, 9, 11, 18, 26];
rreq = [|2, 2, 2, 2, 2, 2, 4, 3, 3, 2, 2, 1, 4, 4, 3, 2, 2, 1, 1, 1, 1, 1, 1, 1, 4, 3, 3, 3, 1, 1, 5, 4, 3, 3, 3, 2, 3, 2, 2, 2, 2, 2, 2, 1, 1, 1, 1, 1, 4, 4, 4, 4, 4, 4, 2, 1, 1, 1, 1, 1, 5, 4, 4, 4, 4, 4, 2, 1, 1, 1, 1, 1, 5, 4, 3, 3, 3, 2, 5, 4, 3, 2, 1, 1, 3, 2, 2, 2, 1, 1, 5, 4, 4, 4, 3, 3, 3, 3, 3, 2, 2, 2, 1, 1, 1, 1, 1, 1, 5, 4, 4, 4, 4, 4, 3, 3, 3, 3, 3, 3, 4, 4, 3, 3, 3, 2, 3, 2, 2, 2, 2, 2, 1, 1, 1, 1, 1, 1, 5, 4, 4, 3, 3, 3, 3, 3, 3, 3, 3, 3, 4, 4, 3, 2, 1, 1, 4, 3, 3, 3, 3, 3, 2, 2, 2, 2, 2, 2, 5, 4, 3, 3, 2, 2, 3, 3, 3, 3, 2, 2, 4, 3, 3, 3, 2, 2, 4, 3, 3, 2, 2, 1, 4, 3, 3, 3, 1, 1, 3, 3, 3, 3, 3, 3, 3, 2, 2, 2, 2, 2, 2, 2, 2, 2, 2, 2, 5, 4, 4, 3, 2, 2, 5, 4, 4, 3, 3, 3, 4, 4, 4, 4, 4, 4, 5, 3, 3, 3, 2, 1, 5, 4, 4, 3, 3, 2, 3, 3, 2, 2, 1, 1, 4, 3, 3, 3, 2, 2, 4, 4, 3, 3, 2, 2, 4, 4, 4, 4, 4, 4, 4, 4, 4, 3, 3, 3, 5, 4, 4, 3, 3, 3, 3, 3, 3, 3, 3, 3, 3, 3, 3, 3, 3, 3, 2, 2, 2, 1, 1, 1, 5, 4, 4, 4, 3, 3, 2, 2, 2, 2, 2, 2, 5, 4, 3, 2, 2, 1, 5, 4, 4, 4, 4, 4, 2, 1, 1, 1, 1, 1, 5, 4, 3, 3, 2, 2, 5, 4, 4, 4, 3, 3, 1, 1, 1, 1, 1, 1, 3, 3, 3, 3, 3, 3, 3, 3, 2, 2, 2, 1, 2, 1, 1, 1, 1, 1, 5, 4, 4, 3, 3, 3, 4, 3, 3, 2, 2, 2, 3, 3, 3, 3, 3, 3, 2, 1, 1, 1, 1, 1, 4, 4, 4, 4, 4, 4, 3, 2, 2, 2, 2, 2, 3, 3, 3, 3, 3, 3, 1, 1, 1, 1, 1, 1, 4, 4, 4, 4, 4, 4, 4, 3, 3, 3, 3, 3, 2, 2, 2, 2, 2, 2, 2, 2, 2, 2, 2, 2, 4, 4, 4, 3, 3, 2, 3, 3, 2, 2, 2, 1, 5, 3, 3, 3, 1, 1, 4, 4, 4, 4, 4, 4, 5, 3, 3, 2, 1, 1, 5, 5, 5, 5, 5, 5, 4, 3, 3, 3, 3, 3, 4, 4, 4, 4, 4, 4, 4, 3, 2, 2, 1, 1, 1, 1, 1, 1, 1, 1, 4, 4, 3, 2, 2, 1, 3, 3, 3, 3, 3, 3, 3, 2, 2, 2, 2, 2, 3, 3, 3, 2, 2, 1, 4, 3, 3, 3, 3, 3, 4, 4, 3, 3, 1, 1, 3, 2, 2, 2, 2, 2, 2, 2, 2, 1, 1, 1, 3, 3, 3, 3, 3, 3, 3, 3, 3, 3, 3, 3, 4, 4, 4, 3, 3, 3, 4, 3, 3, 3, 3, 3, 5, 5, 5, 5, 5, 5, 1, 1, 1, 1, 1, 1, 3, 3, 3, 2, 2, 1, 4, 3, 3, 3, 1, 1, 5, 5, 5, 5, 5, 5
 |4, 4, 4, 3, 2, 2, 3, 2, 2, 2, 2, 2, 4, 4, 4, 4, 4, 4, 2, 2, 2, 1, 1, 1, 1, 1, 1, 1, 1, 1, 2, 2, 2, 1, 1, 1, 4, 4, 4, 4, 4, 4, 4, 3, 3, 2, 1, 1, 3, 3, 3, 3, 2, 2, 3, 3, 3, 2, 2, 2, 3, 2, 2, 2, 1, 1, 4, 4, 4, 4, 4, 4, 5, 3, 3, 2, 2, 1, 2, 2, 2, 2, 2, 2, 2, 2, 2, 2, 2, 2, 3, 2, 2, 2, 1, 1, 3, 3, 3, 2, 1, 1, 5, 3, 3, 2, 1, 1, 3, 2, 2, 2, 2, 2, 4, 3, 3, 2, 1, 1, 4, 4, 3, 3, 2, 2, 4, 3, 3, 2, 2, 1, 2, 2, 2, 2, 2, 2, 4, 3, 3, 3, 3, 3, 3, 2, 2, 2, 2, 2, 5, 4, 3, 3, 3, 2, 5, 4, 4, 3, 2, 2, 2, 2, 2, 2, 2, 2, 3, 2, 2, 1, 1, 1, 4, 4, 4, 3, 3, 3, 2, 2, 2, 2, 2, 2, 2, 2, 2, 2, 2, 2, 3, 2, 2, 1, 1, 1, 1, 1, 1, 1, 1, 1, 4, 3, 2, 2, 1, 1, 2, 2, 2, 2, 2, 2, 3, 2, 2, 2, 1, 1, 4, 3, 2, 2, 1, 1, 4, 4, 4, 3, 3, 3, 4, 4, 4, 3, 3, 2, 3, 3, 3, 3, 3, 3, 5, 3, 3, 2, 1, 1, 4, 4, 3, 2, 2, 1, 3, 3, 3, 3, 3, 3, 4, 3, 3, 3, 2, 2, 3, 3, 3, 3, 3, 3, 5, 5, 5, 5, 5, 5, 4, 3, 3, 2, 2, 1, 3, 2, 2, 2, 1, 1, 3, 2, 2, 2, 2, 2, 2, 2, 2, 2, 2, 2, 2, 2, 2, 2, 2, 2, 4, 3, 3, 3, 3, 3, 4, 4, 4, 4, 4, 4, 3, 2, 2, 2, 2, 2, 4, 3, 3, 3, 2, 1, 2, 2, 2, 2, 1, 1, 4, 4, 3, 3, 3, 2, 2, 1, 1, 1, 1, 1, 4, 4, 4, 4, 4, 4, 5, 4, 4, 4, 4, 4, 5, 4, 4, 4, 4, 4, 3, 2, 2, 2, 1, 1, 3, 2, 2, 2, 2, 2, 3, 3, 3, 3, 2, 2, 2, 1, 1, 1, 1, 1, 3, 3, 3, 3, 2, 2, 1, 1, 1, 1, 1, 1, 1, 1, 1, 1, 1, 1, 5, 4, 4, 4, 4, 4, 2, 2, 2, 2, 2, 2, 5, 4, 4, 4, 3, 3, 3, 3, 3, 3, 2, 2, 4, 4, 4, 4, 4, 4, 4, 4, 4, 4, 4, 4, 2, 1, 1, 1, 1, 1, 4, 3, 3, 3, 2, 2, 4, 4, 3, 2, 1, 1, 4, 4, 4, 3, 3, 2, 4, 3, 3, 3, 3, 3, 5, 5, 5, 5, 5, 5, 4, 3, 2, 2, 1, 1, 2, 1, 1, 1, 1, 1, 1, 1, 1, 1, 1, 1, 2, 2, 2, 2, 2, 2, 4, 4, 4, 4, 4, 4, 2, 2, 2, 1, 1, 1, 3, 2, 2, 2, 1, 1, 4, 3, 3, 3, 2, 1, 5, 4, 3, 3, 3, 2, 5, 4, 3, 3, 3, 2, 4, 4, 4, 4, 4, 4, 3, 3, 3, 3, 3, 3, 3, 2, 2, 2, 1, 1, 3, 3, 3, 3, 3, 3, 3, 2, 2, 2, 2, 2, 4, 3, 3, 3, 2, 2, 1, 1, 1, 1, 1, 1, 2, 2, 2, 2, 2, 2, 4, 4, 4, 4, 4, 4
 |4, 4, 4, 4, 3, 3, 4, 4, 3, 3, 3, 2, 2, 1, 1, 1, 1, 1, 4, 3, 3, 2, 2, 1, 3, 3, 3, 3, 2, 2, 2, 1, 1, 1, 1, 1, 5, 5, 5, 5, 5, 5, 2, 2, 2, 2, 2, 2, 5, 4, 3, 3, 2, 1, 1, 1, 1, 1, 1, 1, 3, 3, 2, 2, 1, 1, 3, 3, 3, 2, 1, 1, 5, 3, 3, 2, 1, 1, 2, 2, 2, 2, 2, 2, 3, 3, 3, 3, 3, 3, 1, 1, 1, 1, 1, 1, 3, 3, 3, 3, 3, 3, 4, 3, 3, 3, 2, 2, 3, 3, 3, 2, 2, 1, 5, 4, 4, 4, 4, 4, 4, 4, 4, 4, 4, 4, 3, 3, 3, 3, 3, 3, 5, 3, 3, 3, 1, 1, 4, 4, 4, 3, 3, 2, 4, 4, 4, 4, 4, 4, 1, 1, 1, 1, 1, 1, 3, 3, 3, 2, 2, 1, 3, 2, 2, 2, 2, 2, 5, 5, 5, 5, 5, 5, 3, 3, 3, 3, 3, 3, 1, 1, 1, 1, 1, 1, 5, 4, 3, 3, 2, 2, 3, 2, 2, 2, 2, 2, 4, 4, 4, 4, 4, 4, 4, 4, 4, 4, 4, 4, 3, 3, 3, 3, 3, 3, 4, 4, 4, 4, 4, 4, 1, 1, 1, 1, 1, 1, 3, 3, 3, 3, 3, 3, 3, 2, 2, 2, 2, 2, 4, 4, 4, 4, 4, 4, 4, 4, 4, 3, 3, 3, 5, 4, 4, 3, 2, 2, 2, 2, 2, 2, 2, 2, 2, 2, 2, 2, 2, 2, 3, 2, 2, 2, 1, 1, 5, 3, 3, 2, 1, 1, 1, 1, 1, 1, 1, 1, 4, 3, 2, 2, 1, 1, 3, 2, 2, 2, 1, 1, 3, 3, 3, 2, 2, 2, 2, 2, 2, 2, 2, 2, 4, 4, 4, 4, 4, 4, 5, 4, 3, 3, 3, 2, 3, 2, 2, 2, 1, 1, 5, 3, 3, 2, 2, 1, 4, 4, 4, 4, 4, 4, 3, 3, 2, 2, 1, 1, 2, 1, 1, 1, 1, 1, 5, 5, 5, 5, 5, 5, 5, 3, 3, 2, 2, 1, 3, 3, 3, 2, 2, 1, 4, 4, 4, 4, 4, 4, 3, 2, 2, 2, 1, 1, 2, 2, 2, 2, 1, 1, 5, 5, 5, 5, 5, 5, 1, 1, 1, 1, 1, 1, 4, 4, 4, 4, 4, 4, 4, 3, 3, 2, 2, 2, 4, 3, 3, 3, 3, 3, 4, 4, 4, 3, 3, 3, 3, 2, 2, 2, 1, 1, 4, 4, 4, 3, 2, 2, 2, 2, 2, 2, 2, 2, 3, 2, 2, 2, 2, 2, 3, 3, 3, 3, 3, 3, 4, 4, 4, 4, 4, 4, 4, 3, 3, 3, 3, 3, 1, 1, 1, 1, 1, 1, 2, 2, 2, 2, 1, 1, 3, 3, 3, 2, 1, 1, 4, 3, 3, 2, 2, 2, 1, 1, 1, 1, 1, 1, 5, 3, 3, 3, 1, 1, 1, 1, 1, 1, 1, 1, 3, 3, 2, 2, 2, 1, 4, 3, 2, 2, 1, 1, 4, 3, 2, 2, 2, 1, 4, 3, 2, 2, 2, 1, 4, 3, 3, 3, 3, 3, 2, 2, 2, 2, 2, 2, 4, 4, 3, 3, 2, 2, 4, 4, 4, 4, 4, 4, 4, 4, 3, 3, 2, 2, 3, 3, 3, 3, 3, 3, 4, 3, 3, 3, 3, 3, 5, 4, 4, 3, 2, 2, 5, 4, 4, 4, 4, 4, 3, 2, 2, 1, 1, 1, 3, 3, 3, 3, 3, 3
 |4, 3, 3, 3, 2, 2, 3, 3, 3, 3, 3, 3, 2, 2, 2, 2, 2, 2, 4, 3, 3, 2, 1, 1, 3, 3, 2, 2, 2, 1, 5, 4, 4, 4, 3, 3, 2, 2, 2, 1, 1, 1, 4, 3, 3, 3, 3, 3, 3, 2, 2, 2, 1, 1, 5, 4, 3, 3, 2, 2, 2, 2, 2, 2, 2, 2, 1, 1, 1, 1, 1, 1, 3, 3, 3, 3, 2, 2, 3, 3, 3, 3, 3, 3, 2, 2, 2, 2, 2, 2, 2, 2, 2, 2, 2, 2, 3, 3, 2, 2, 1, 1, 3, 3, 3, 2, 2, 1, 4, 3, 3, 3, 2, 2, 4, 4, 3, 3, 2, 2, 2, 2, 2, 2, 2, 2, 4, 3, 3, 3, 3, 3, 3, 3, 3, 2, 1, 1, 3, 3, 3, 2, 2, 1, 4, 4, 4, 4, 4, 4, 4, 4, 4, 3, 3, 3, 4, 4, 4, 4, 3, 3, 3, 2, 2, 2, 2, 2, 4, 3, 3, 3, 3, 3, 3, 3, 3, 2, 2, 2, 3, 2, 2, 1, 1, 1, 4, 4, 3, 3, 2, 2, 4, 3, 3, 2, 2, 2, 2, 2, 2, 2, 2, 2, 2, 2, 2, 2, 1, 1, 4, 3, 2, 2, 1, 1, 5, 4, 4, 4, 3, 3, 5, 4, 4, 3, 2, 2, 2, 2, 2, 2, 1, 1, 3, 2, 2, 2, 1, 1, 4, 4, 4, 4, 4, 4, 5, 5, 5, 5, 5, 5, 5, 4, 4, 3, 2, 2, 2, 1, 1, 1, 1, 1, 3, 2, 2, 2, 2, 2, 3, 3, 2, 2, 1, 1, 4, 4, 4, 4, 3, 3, 3, 3, 3, 2, 2, 1, 3, 2, 2, 2, 2, 2, 2, 2, 2, 2, 2, 2, 2, 2, 2, 2, 2, 2, 3, 2, 2, 2, 2, 2, 2, 2, 2, 2, 2, 2, 2, 2, 2, 2, 2, 2, 2, 2, 2, 2, 2, 2, 4, 4, 4, 4, 4, 4, 4, 3, 3, 2, 2, 1, 3, 3, 3, 3, 3, 3, 2, 1, 1, 1, 1, 1, 3, 2, 2, 2, 2, 2, 3, 3, 3, 3, 3, 3, 4, 4, 3, 3, 2, 1, 3, 2, 2, 2, 2, 2, 5, 4, 4, 3, 3, 3, 3, 2, 2, 2, 2, 2, 3, 2, 2, 1, 1, 1, 4, 4, 4, 4, 4, 4, 3, 3, 2, 2, 2, 1, 3, 3, 3, 3, 3, 3, 5, 5, 5, 5, 5, 5, 5, 4, 3, 3, 2, 2, 4, 3, 3, 3, 2, 2, 3, 2, 2, 2, 1, 1, 4, 3, 3, 3, 2, 2, 4, 4, 4, 3, 3, 3, 3, 2, 2, 2, 2, 2, 1, 1, 1, 1, 1, 1, 5, 4, 4, 4, 4, 4, 4, 4, 4, 4, 4, 4, 5, 4, 3, 2, 2, 1, 3, 2, 2, 2, 2, 2, 2, 2, 2, 2, 2, 2, 5, 5, 5, 5, 5, 5, 1, 1, 1, 1, 1, 1, 2, 2, 2, 2, 1, 1, 2, 2, 2, 2, 2, 2, 5, 4, 4, 3, 3, 2, 4, 4, 4, 4, 4, 4, 3, 3, 3, 3, 2, 2, 4, 4, 4, 4, 4, 4, 2, 2, 2, 2, 2, 2, 2, 2, 2, 1, 1, 1, 4, 3, 3, 2, 2, 2, 4, 3, 3, 3, 2, 2, 4, 4, 3, 3, 3, 2, 3, 3, 3, 3, 3, 3, 4, 3, 3, 3, 2, 2, 4, 4, 4, 4, 4, 4, 2, 2, 2, 1, 1, 1, 3, 2, 2, 2, 2, 2
 |27, 25, 24, 21, 21, 19, 25, 24, 24, 24, 23, 22, 24, 23, 23, 23, 23, 23, 28, 20, 17, 11, 8, 4, 12, 10, 10, 9, 7, 6, 28, 27, 26, 25, 25, 24, 13, 13, 10, 9, 6, 4, 7, 7, 6, 5, 3, 2, 26, 25, 23, 23, 21, 19, 25, 24, 24, 23, 22, 21, 15, 13, 9, 8, 5, 5, 3, 3, 2, 2, 2, 1, 22, 22, 19, 19, 18, 15, 24, 20, 20, 18, 14, 14, 28, 26, 21, 17, 14, 12, 16, 14, 12, 9, 8, 7, 2, 2, 2, 2, 2, 2, 25, 24, 23, 23, 23, 22, 23, 22, 20, 19, 18, 16, 10, 9, 7, 5, 3, 2, 16, 16, 16, 16, 16, 16, 13, 12, 12, 12, 11, 11, 21, 21, 21, 21, 21, 21, 27, 27, 27, 27, 27, 27, 14, 13, 11, 9, 7, 5, 24, 21, 18, 18, 14, 12, 15, 14, 13, 12, 11, 11, 28, 23, 21, 16, 12, 6, 27, 25, 21, 20, 17, 15, 20, 20, 19, 18, 17, 17, 18, 13, 13, 9, 5, 3, 27, 23, 20, 19, 14, 10, 8, 8, 6, 6, 3, 3, 26, 21, 17, 13, 10, 9, 11, 8, 7, 6, 3, 2, 15, 14, 11, 10, 8, 4, 16, 16, 14, 13, 12, 11, 9, 9, 9, 9, 9, 9, 30, 27, 25, 25, 21, 21, 11, 11, 10, 10, 9, 8, 27, 21, 19, 17, 13, 9, 13, 13, 12, 11, 9, 8, 18, 16, 12, 12, 6, 5, 29, 24, 23, 19, 19, 14, 28, 26, 23, 22, 19, 17, 26, 25, 24, 24, 24, 23, 26, 22, 20, 19, 17, 16, 12, 11, 11, 11, 10, 10, 27, 25, 20, 13, 9, 6, 24, 22, 20, 16, 14, 11, 18, 18, 15, 14, 14, 12, 14, 13, 10, 9, 6, 6, 24, 20, 18, 14, 8, 5, 10, 9, 8, 8, 8, 7, 9, 8, 8, 7, 6, 6, 18, 14, 12, 9, 6, 3, 20, 16, 16, 11, 9, 7, 16, 13, 11, 9, 7, 6, 24, 24, 24, 24, 24, 24, 26, 24, 23, 20, 16, 13, 18, 17, 16, 15, 14, 14, 18, 17, 14, 13, 11, 9, 16, 16, 16, 16, 15, 15, 1, 1, 1, 1, 1, 1, 3, 3, 3, 3, 3, 3, 26, 26, 26, 26, 26, 26, 30, 28, 25, 22, 21, 18, 27, 26, 26, 26, 26, 26, 15, 13, 13, 12, 11, 11, 30, 28, 26, 25, 25, 24, 22, 19, 16, 15, 14, 12, 12, 11, 11, 11, 10, 10, 13, 12, 11, 9, 9, 8, 20, 19, 16, 15, 11, 11, 18, 14, 12, 10, 10, 6, 12, 12, 9, 7, 6, 4, 10, 9, 7, 4, 2, 1, 29, 28, 27, 27, 27, 26, 21, 19, 18, 18, 16, 15, 24, 21, 20, 16, 15, 12, 22, 21, 21, 18, 18, 17, 22, 21, 21, 20, 19, 19, 17, 16, 13, 11, 11, 9, 17, 14, 13, 10, 6, 4, 14, 14, 14, 14, 14, 14, 15, 14, 11, 10, 5, 5, 18, 16, 13, 12, 10, 8, 11, 10, 10, 9, 9, 8, 8, 8, 7, 6, 5, 4, 13, 10, 9, 6, 5, 4, 21, 20, 19, 16, 16, 15, 28, 28, 27, 26, 25, 23, 19, 17, 17, 17, 16, 15, 12, 11, 10, 10, 9, 9, 30, 28, 27, 26, 24, 23, 20, 17, 13, 8, 6, 5, 30, 23, 23, 20, 16, 11, 22, 19, 18, 17, 15, 13, 25, 21, 16, 12, 11, 5, 13, 11, 7, 6, 5, 3
 |21, 17, 13, 12, 9, 6, 18, 17, 13, 8, 5, 4, 28, 24, 20, 19, 16, 13, 27, 25, 23, 16, 13, 10, 17, 15, 13, 11, 9, 6, 10, 8, 8, 7, 7, 6, 30, 24, 17, 17, 12, 8, 27, 26, 25, 25, 23, 23, 22, 20, 15, 12, 10, 7, 27, 26, 22, 21, 18, 12, 17, 17, 17, 17, 17, 17, 26, 25, 23, 22, 18, 18, 26, 22, 17, 12, 9, 7, 26, 25, 24, 24, 24, 23, 25, 24, 23, 21, 20, 20, 17, 14, 12, 12, 8, 8, 24, 18, 15, 12, 5, 1, 26, 23, 21, 19, 18, 14, 3, 2, 2, 2, 1, 1, 20, 19, 17, 17, 15, 15, 22, 22, 18, 15, 13, 8, 24, 23, 23, 23, 23, 23, 16, 14, 14, 12, 11, 10, 10, 9, 9, 9, 8, 8, 10, 10, 10, 10, 10, 10, 12, 12, 12, 12, 12, 12, 10, 9, 9, 9, 9, 9, 23, 20, 17, 15, 13, 12, 19, 19, 19, 19, 19, 19, 15, 10, 10, 6, 4, 3, 23, 21, 20, 16, 13, 9, 22, 21, 20, 20, 20, 19, 23, 22, 17, 11, 5, 5, 20, 19, 18, 17, 17, 16, 22, 22, 18, 16, 15, 13, 27, 24, 23, 22, 20, 19, 25, 24, 22, 20, 19, 17, 15, 15, 13, 13, 12, 11, 25, 24, 23, 19, 18, 15, 19, 19, 19, 19, 19, 19, 11, 10, 8, 5, 4, 3, 30, 21, 20, 14, 9, 9, 9, 9, 9, 8, 8, 8, 18, 16, 15, 13, 10, 6, 30, 28, 26, 25, 23, 23, 21, 17, 14, 12, 10, 3, 24, 21, 16, 14, 11, 10, 23, 19, 16, 15, 14, 11, 17, 16, 13, 11, 8, 6, 24, 24, 23, 22, 19, 19, 7, 7, 7, 7, 7, 7, 13, 12, 10, 7, 6, 2, 21, 20, 16, 16, 14, 12, 15, 14, 12, 10, 7, 6, 22, 19, 16, 13, 12, 7, 27, 25, 22, 19, 17, 15, 26, 26, 22, 14, 14, 6, 11, 9, 7, 4, 2, 1, 18, 17, 17, 17, 16, 16, 26, 24, 24, 24, 22, 22, 9, 7, 5, 5, 3, 3, 10, 9, 7, 7, 6, 5, 26, 24, 22, 20, 20, 18, 23, 21, 18, 13, 13, 9, 26, 20, 20, 16, 11, 7, 28, 28, 27, 27, 25, 25, 28, 25, 24, 22, 19, 17, 25, 22, 21, 19, 17, 17, 23, 23, 23, 23, 23, 23, 28, 23, 18, 15, 6, 5, 10, 10, 10, 10, 10, 10, 7, 7, 6, 5, 4, 4, 28, 25, 20, 18, 13, 9, 10, 7, 7, 5, 3, 1, 20, 19, 17, 16, 15, 14, 22, 18, 15, 12, 9, 3, 10, 10, 8, 7, 7, 5, 28, 28, 28, 28, 28, 28, 14, 12, 12, 10, 8, 8, 28, 21, 18, 16, 13, 9, 14, 10, 8, 6, 3, 1, 22, 21, 20, 19, 19, 17, 22, 18, 17, 12, 11, 9, 2, 2, 2, 2, 2, 2, 24, 21, 21, 18, 18, 16, 20, 16, 14, 14, 11, 9, 26, 21, 19, 17, 13, 9, 27, 24, 22, 17, 13, 12, 22, 19, 18, 16, 13, 10, 16, 15, 13, 11, 8, 8, 20, 16, 14, 10, 8, 1, 25, 23, 19, 15, 14, 12, 13, 11, 10, 10, 9, 8, 16, 15, 14, 12, 10, 10, 23, 22, 21, 20, 20, 19, 19, 17, 16, 15, 15, 14, 19, 19, 15, 14, 11, 8, 5, 4, 3, 2, 2, 1, 8, 8, 8, 7, 7, 7, 10, 8, 8, 6, 5, 5
 |17, 13, 12, 6, 4, 3, 12, 11, 10, 8, 7, 6, 20, 20, 19, 18, 17, 16, 9, 9, 9, 9, 8, 8, 19, 19, 18, 18, 16, 16, 26, 26, 25, 24, 23, 21, 22, 18, 18, 14, 13, 12, 23, 20, 16, 13, 9, 7, 29, 28, 28, 26, 25, 25, 29, 28, 26, 26, 23, 23, 8, 7, 6, 5, 4, 3, 23, 22, 21, 20, 19, 19, 28, 26, 24, 24, 23, 22, 6, 5, 5, 4, 4, 3, 20, 13, 13, 7, 6, 3, 3, 3, 3, 3, 3, 3, 27, 24, 22, 15, 14, 12, 23, 20, 18, 17, 15, 12, 13, 12, 9, 9, 6, 6, 12, 11, 10, 8, 7, 7, 21, 21, 19, 19, 17, 17, 22, 21, 17, 12, 9, 8, 15, 12, 10, 8, 6, 3, 9, 8, 7, 6, 5, 4, 22, 20, 19, 16, 15, 14, 25, 19, 18, 14, 9, 8, 29, 27, 24, 22, 22, 20, 13, 11, 8, 7, 4, 4, 19, 17, 17, 15, 13, 10, 6, 5, 4, 4, 3, 2, 19, 13, 12, 8, 4, 3, 26, 25, 20, 19, 14, 11, 6, 6, 5, 4, 3, 2, 27, 19, 16, 13, 6, 2, 28, 25, 23, 20, 14, 13, 5, 4, 4, 4, 3, 3, 18, 17, 11, 10, 8, 2, 10, 10, 9, 8, 7, 5, 29, 22, 17, 16, 11, 6, 9, 9, 9, 9, 8, 8, 22, 21, 19, 16, 15, 14, 9, 8, 8, 8, 8, 8, 17, 14, 11, 7, 7, 3, 28, 26, 22, 17, 17, 11, 10, 10, 10, 10, 10, 10, 13, 12, 11, 9, 8, 7, 20, 18, 18, 17, 15, 15, 21, 18, 14, 13, 8, 2, 28, 26, 24, 22, 22, 20, 27, 25, 23, 22, 21, 20, 29, 29, 29, 29, 29, 29, 29, 29, 28, 26, 26, 25, 22, 22, 22, 22, 22, 22, 21, 18, 18, 15, 14, 12, 12, 11, 11, 10, 10, 10, 5, 4, 4, 4, 3, 3, 13, 12, 11, 9, 6, 6, 28, 23, 21, 17, 12, 4, 10, 8, 7, 5, 4, 4, 21, 21, 21, 21, 21, 21, 12, 12, 12, 12, 12, 12, 15, 13, 10, 8, 7, 5, 22, 20, 16, 14, 7, 5, 25, 22, 19, 19, 15, 10, 10, 8, 7, 7, 5, 4, 18, 16, 12, 12, 7, 6, 30, 26, 24, 22, 18, 14, 18, 15, 14, 13, 11, 7, 18, 18, 16, 16, 14, 14, 23, 22, 21, 20, 19, 17, 18, 17, 17, 16, 16, 15, 9, 7, 6, 5, 2, 2, 12, 11, 10, 10, 9, 8, 27, 26, 25, 22, 18, 16, 26, 24, 20, 15, 13, 8, 3, 3, 3, 2, 2, 2, 28, 26, 24, 20, 18, 17, 26, 25, 25, 25, 25, 25, 16, 16, 14, 13, 12, 11, 10, 10, 10, 10, 10, 10, 21, 19, 18, 13, 11, 7, 6, 5, 5, 5, 5, 5, 14, 12, 11, 11, 9, 7, 28, 26, 24, 24, 21, 20, 25, 20, 18, 12, 10, 6, 26, 25, 25, 23, 22, 21, 28, 23, 22, 21, 17, 15, 21, 17, 17, 11, 10, 6, 23, 20, 20, 16, 15, 10, 11, 10, 9, 8, 7, 6, 14, 12, 10, 8, 4, 4, 27, 25, 25, 24, 23, 21, 22, 21, 21, 20, 20, 20, 9, 8, 8, 8, 7, 6, 13, 9, 8, 7, 5, 2, 24, 22, 20, 17, 14, 10, 22, 21, 18, 13, 12, 8, 26, 24, 22, 22, 20, 19, 23, 22, 21, 19, 15, 13, 27, 19, 15, 15, 8, 7
 |4, 4, 3, 3, 2, 1, 18, 16, 15, 12, 10, 8, 28, 24, 24, 23, 21, 18, 16, 13, 10, 8, 6, 2, 30, 25, 23, 21, 21, 19, 4, 4, 4, 4, 3, 3, 29, 25, 20, 20, 16, 13, 26, 23, 23, 20, 20, 18, 24, 22, 20, 19, 17, 17, 15, 13, 11, 9, 6, 4, 20, 16, 15, 12, 9, 4, 12, 11, 10, 10, 9, 9, 24, 23, 21, 20, 17, 15, 22, 21, 18, 14, 10, 5, 26, 25, 23, 23, 21, 21, 13, 11, 10, 9, 9, 8, 29, 28, 26, 26, 25, 23, 27, 25, 19, 16, 13, 7, 30, 26, 23, 20, 18, 18, 24, 19, 16, 13, 12, 7, 15, 14, 14, 14, 13, 13, 24, 22, 22, 21, 17, 17, 3, 2, 2, 2, 2, 2, 27, 25, 25, 24, 22, 22, 19, 18, 17, 14, 12, 10, 18, 16, 15, 13, 13, 10, 19, 17, 14, 10, 7, 4, 28, 27, 27, 27, 26, 25, 26, 26, 26, 26, 25, 25, 14, 11, 9, 8, 3, 2, 9, 9, 9, 8, 8, 8, 14, 13, 12, 11, 10, 10, 24, 18, 16, 14, 9, 5, 25, 22, 18, 17, 15, 14, 15, 13, 12, 12, 11, 10, 22, 17, 15, 8, 4, 1, 28, 24, 22, 20, 18, 17, 19, 17, 15, 14, 12, 10, 10, 8, 6, 4, 2, 1, 21, 20, 19, 19, 18, 17, 5, 5, 5, 5, 5, 5, 14, 13, 11, 11, 10, 9, 7, 6, 6, 5, 5, 5, 9, 7, 6, 6, 5, 4, 30, 29, 29, 29, 29, 29, 27, 22, 17, 12, 8, 5, 25, 25, 25, 25, 25, 25, 27, 27, 25, 24, 24, 23, 21, 17, 16, 14, 12, 8, 25, 23, 22, 17, 15, 14, 27, 25, 25, 23, 22, 19, 26, 25, 25, 25, 25, 25, 6, 5, 3, 2, 1, 1, 15, 15, 15, 15, 15, 15, 21, 18, 17, 15, 15, 13, 20, 19, 17, 14, 13, 11, 25, 23, 20, 19, 17, 16, 21, 21, 20, 18, 15, 15, 26, 22, 20, 16, 11, 10, 11, 11, 9, 6, 3, 2, 13, 12, 11, 8, 6, 6, 12, 8, 7, 6, 2, 2, 14, 14, 12, 11, 10, 9, 13, 10, 7, 6, 5, 2, 25, 25, 24, 24, 23, 22, 17, 17, 17, 17, 17, 17, 26, 20, 17, 13, 10, 9, 26, 22, 19, 12, 8, 4, 27, 25, 23, 20, 18, 16, 25, 23, 22, 21, 19, 18, 25, 24, 23, 22, 21, 20, 24, 22, 19, 17, 16, 14, 16, 15, 15, 15, 14, 14, 24, 20, 15, 12, 6, 3, 22, 22, 19, 16, 16, 13, 10, 9, 8, 7, 6, 4, 15, 13, 10, 7, 6, 3, 6, 5, 4, 3, 3, 2, 3, 3, 3, 3, 3, 3, 21, 16, 14, 10, 9, 4, 30, 21, 18, 16, 11, 3, 27, 27, 26, 23, 21, 20, 29, 28, 28, 28, 27, 27, 26, 26, 25, 25, 24, 24, 21, 17, 14, 10, 7, 6, 15, 12, 8, 6, 6, 4, 29, 26, 26, 25, 24, 22, 20, 14, 13, 7, 5, 2, 24, 21, 13, 10, 9, 1, 11, 10, 10, 9, 9, 9, 8, 7, 6, 6, 6, 5, 25, 21, 19, 15, 15, 10, 27, 23, 18, 13, 10, 5, 30, 23, 21, 15, 12, 4, 23, 21, 21, 20, 20, 19, 26, 25, 25, 25, 23, 23, 29, 28, 26, 26, 25, 23, 19, 17, 17, 14, 14, 12, 23, 21, 18, 18, 17, 15, 26, 19, 17, 14, 11, 9|];